Version identifier: 22.1.1.0 | 2022-11-28 | 9160aff4d
CPXPARAM_Threads                                 8
CPXPARAM_Emphasis_MIP                            5
CPXPARAM_TimeLimit                               3600
CPXPARAM_MIP_Tolerances_MIPGap                   0.029999999999999999
Tried aggregator 3 times.
MIP Presolve eliminated 90 rows and 45 columns.
MIP Presolve added 2 rows and 2 columns.
MIP Presolve modified 4 coefficients.
Aggregator did 23 substitutions.
Reduced MIP has 79 rows, 67 columns, and 268 nonzeros.
Reduced MIP has 47 binaries, 20 generals, 0 SOSs, and 0 indicators.
Presolve time = 0.00 sec. (0.62 ticks)
Found incumbent of value 274.000000 after 0.00 sec. (1.06 ticks)
Probing time = 0.00 sec. (0.10 ticks)
Tried aggregator 1 time.
Detecting symmetries...
MIP Presolve eliminated 1 rows and 1 columns.
MIP Presolve added 1 rows and 1 columns.
Reduced MIP has 79 rows, 67 columns, and 268 nonzeros.
Reduced MIP has 47 binaries, 20 generals, 0 SOSs, and 0 indicators.
Presolve time = 0.00 sec. (0.17 ticks)
Probing time = 0.00 sec. (0.10 ticks)
Clique table members: 70.
MIP emphasis: heuristic.
MIP search method: dynamic search.
Parallel mode: deterministic, using up to 8 threads.
Root relaxation solution time = 0.00 sec. (0.26 ticks)

        Nodes                                         Cuts/
   Node  Left     Objective  IInf  Best Integer    Best Bound    ItCnt     Gap

*     0+    0                          274.0000        0.0000           100.00%
*     0     0      integral     0      163.0000      163.0000       44    0.00%
Elapsed time = 0.01 sec. (1.83 ticks, tree = 0.00 MB, solutions = 2)
Version identifier: 22.1.1.0 | 2022-11-28 | 9160aff4d
CPXPARAM_Threads                                 8
CPXPARAM_Emphasis_MIP                            5
CPXPARAM_TimeLimit                               3600
CPXPARAM_MIP_Tolerances_MIPGap                   0.029999999999999999
Tried aggregator 3 times.
MIP Presolve eliminated 146 rows and 90 columns.
MIP Presolve added 1 rows and 1 columns.
MIP Presolve modified 10 coefficients.
Aggregator did 31 substitutions.
Reduced MIP has 118 rows, 90 columns, and 388 nonzeros.
Reduced MIP has 62 binaries, 28 generals, 0 SOSs, and 0 indicators.
Presolve time = 0.00 sec. (0.90 ticks)
Found incumbent of value 228.000000 after 0.01 sec. (1.61 ticks)
Probing time = 0.00 sec. (0.28 ticks)
Tried aggregator 1 time.
Detecting symmetries...
Reduced MIP has 118 rows, 90 columns, and 388 nonzeros.
Reduced MIP has 62 binaries, 28 generals, 0 SOSs, and 0 indicators.
Presolve time = 0.00 sec. (0.24 ticks)
Probing time = 0.00 sec. (0.28 ticks)
Clique table members: 262.
MIP emphasis: heuristic.
MIP search method: dynamic search.
Parallel mode: deterministic, using up to 8 threads.
Root relaxation solution time = 0.00 sec. (0.34 ticks)

        Nodes                                         Cuts/
   Node  Left     Objective  IInf  Best Integer    Best Bound    ItCnt     Gap

*     0+    0                          228.0000       45.0000            80.26%
*     0     0      integral     0      163.0000      163.0000       51    0.00%
Elapsed time = 0.01 sec. (3.01 ticks, tree = 0.00 MB, solutions = 2)

Root node processing (before b&c):
  Real time             =    0.01 sec. (3.02 ticks)
Parallel b&c, 8 threads:
  Real time             =    0.00 sec. (0.00 ticks)
  Sync time (average)   =    0.00 sec.
  Wait time (average)   =    0.00 sec.
                          ------------
Total (root+branch&cut) =    0.01 sec. (3.02 ticks)

Root node processing (before b&c):
  Real time             =    0.01 sec. (1.84 ticks)
Parallel b&c, 8 threads:
  Real time             =    0.00 sec. (0.00 ticks)
  Sync time (average)   =    0.00 sec.
  Wait time (average)   =    0.00 sec.
                          ------------
Total (root+branch&cut) =    0.01 sec. (1.84 ticks)
Version identifier: 22.1.1.0 | 2022-11-28 | 9160aff4d
CPXPARAM_Threads                                 8
CPXPARAM_Emphasis_MIP                            5
CPXPARAM_TimeLimit                               3600
CPXPARAM_MIP_Tolerances_MIPGap                   0.029999999999999999
Tried aggregator 3 times.
MIP Presolve eliminated 90 rows and 45 columns.
MIP Presolve added 2 rows and 2 columns.
MIP Presolve modified 4 coefficients.
Aggregator did 23 substitutions.
Reduced MIP has 79 rows, 67 columns, and 268 nonzeros.
Reduced MIP has 47 binaries, 20 generals, 0 SOSs, and 0 indicators.
Presolve time = 0.01 sec. (0.62 ticks)
Found incumbent of value 274.000000 after 0.03 sec. (1.06 ticks)
Probing time = 0.00 sec. (0.10 ticks)
Tried aggregator 1 time.
Detecting symmetries...
MIP Presolve eliminated 1 rows and 1 columns.
MIP Presolve added 1 rows and 1 columns.
Reduced MIP has 79 rows, 67 columns, and 268 nonzeros.
Reduced MIP has 47 binaries, 20 generals, 0 SOSs, and 0 indicators.
Presolve time = 0.00 sec. (0.17 ticks)
Probing time = 0.00 sec. (0.10 ticks)
Clique table members: 70.
MIP emphasis: heuristic.
MIP search method: dynamic search.
Parallel mode: deterministic, using up to 8 threads.
Root relaxation solution time = 0.01 sec. (0.26 ticks)

        Nodes                                         Cuts/
   Node  Left     Objective  IInf  Best Integer    Best Bound    ItCnt     Gap

*     0+    0                          274.0000        0.0000           100.00%
*     0     0      integral     0      163.0000      163.0000       44    0.00%
Elapsed time = 0.05 sec. (1.83 ticks, tree = 0.00 MB, solutions = 2)
Version identifier: 22.1.1.0 | 2022-11-28 | 9160aff4d
CPXPARAM_Threads                                 8
CPXPARAM_Emphasis_MIP                            5
CPXPARAM_TimeLimit                               3600
CPXPARAM_MIP_Tolerances_MIPGap                   0.029999999999999999
Tried aggregator 3 times.
MIP Presolve eliminated 146 rows and 90 columns.
MIP Presolve added 1 rows and 1 columns.
MIP Presolve modified 10 coefficients.
Aggregator did 31 substitutions.
Reduced MIP has 118 rows, 90 columns, and 388 nonzeros.
Reduced MIP has 62 binaries, 28 generals, 0 SOSs, and 0 indicators.
Presolve time = 0.00 sec. (0.90 ticks)
Found incumbent of value 228.000000 after 0.00 sec. (1.61 ticks)
Probing time = 0.00 sec. (0.28 ticks)
Tried aggregator 1 time.
Detecting symmetries...
Reduced MIP has 118 rows, 90 columns, and 388 nonzeros.
Reduced MIP has 62 binaries, 28 generals, 0 SOSs, and 0 indicators.
Presolve time = 0.00 sec. (0.24 ticks)
Probing time = 0.00 sec. (0.28 ticks)
Clique table members: 262.
MIP emphasis: heuristic.
MIP search method: dynamic search.
Parallel mode: deterministic, using up to 8 threads.
Root relaxation solution time = 0.00 sec. (0.34 ticks)

        Nodes                                         Cuts/
   Node  Left     Objective  IInf  Best Integer    Best Bound    ItCnt     Gap

*     0+    0                          228.0000       45.0000            80.26%
*     0     0      integral     0      163.0000      163.0000       51    0.00%
Elapsed time = 0.01 sec. (3.01 ticks, tree = 0.00 MB, solutions = 2)

Root node processing (before b&c):
  Real time             =    0.01 sec. (3.02 ticks)
Parallel b&c, 8 threads:
  Real time             =    0.00 sec. (0.00 ticks)
  Sync time (average)   =    0.00 sec.
  Wait time (average)   =    0.00 sec.
                          ------------
Total (root+branch&cut) =    0.01 sec. (3.02 ticks)

Root node processing (before b&c):
  Real time             =    0.05 sec. (1.84 ticks)
Parallel b&c, 8 threads:
  Real time             =    0.00 sec. (0.00 ticks)
  Sync time (average)   =    0.00 sec.
  Wait time (average)   =    0.00 sec.
                          ------------
Total (root+branch&cut) =    0.05 sec. (1.84 ticks)
